#from Caballero, Grossmann (Design of distillation sequences: from conventional to fully thermally coupled distillation systems, Computers & Chemical Engineering)
#example 1 -reduced(1,2,3)

set C := 1, 2, 3;

param alpha := 1 2.78 2 1.78 3 1;